c --- [ banner ] -------------------------------------------------------------
c 
c CaDiCaL Radically Simplified CDCL SAT Solver
c Copyright (c) 2016-2021 A. Biere, M. Fleury, N. Froleyks
c 
c Version 1.5.2 9c38a080b32c28d805e8e6ca21849856b0cda605
c g++ (Ubuntu 7.5.0-3ubuntu1~18.04) 7.5.0 -Wall -Wextra -O3 -DNDEBUG
c Wed Feb 16 23:15:36 EST 2022 Linux fac-vanhoeve01 5.4.0-99-generic x86_64
c 
c --- [ parsing input ] ------------------------------------------------------
c 
c reading DIMACS file from '<stdin>' (use '-h' for a list of common options)
c found 'p cnf 2692 7976' header
c parsed 7976 clauses in 0.00 seconds process time
c disconnecting from '<stdin>'
c after reading 106558 bytes 0.1 MB
c 
c --- [ options ] ------------------------------------------------------------
c 
c all options are set to their default value
c 
c --- [ solving ] ------------------------------------------------------------
c 
c time measured in process time since initialization
c 
c  seconds  reductions  redundant irredundant
c         MB    restarts       trail    variables
c          level   conflicts       glue      remaining
c 
c *  0.00  4  0 0   0    0    0  0% 0 7974 2618 97%
c {  0.01  4  0 0   0    0    0  0% 0 7974 2618 97%
c -  0.02  5 67 1  35  300  291 70% 8 7902 2618 97%
c -  0.06  5 39 2 102  902  734 81% 9 7902 2618 97%
c }  0.07  5 36 2 104 1001  806 79% 9 7902 2618 97%
c [  0.07  5  0 2 104 1001  806  0% 0 7902 2618 97%
c O  0.07  5 15 2 104 1002  807 95% 10 7902 2618 97%
c -  0.11  6 17 3 104 1802 1052 92% 12 7902 2618 97%
c ]  0.17  6 19 3 105 3001 1981 92% 13 7902 2618 97%
c {  0.17  6 36 3 105 3001 1981 79% 9 7902 2618 97%
c -  0.17  6 36 4 105 3004 1420 79% 9 7902 2618 97%
c F  0.17  6 36 4 105 3005 1421 79% 9 7902 2618 97%
c s  0.19  6 35 4 132 3216 1625 80% 9 7902 2618 97%
c e  0.21  6 35 4 132 3216   55 80% 9 5684 885 33%
c s  0.21  6 35 4 132 3216   51 80% 9 5684 885 33%
c -  0.28  6 28 5 245 4507 1232 86% 9 5684 885 33%
c p  0.30  6 27 5 256 5001 1712 85% 9 5684 885 33%
c #  0.34  6 26 5 331 6006 2665 86% 9 5684 885 33%
c -  0.35  6 25 6 367 6308 2239 85% 10 5684 885 33%
c }  0.38  6 24 6 400 7003 2861 85% 10 5684 885 33%
c 
c  seconds  reductions  redundant   irredundant
c         MB    restarts       trail      variables
c          level   conflicts        glue      remaining
c 
c [  0.38  6 19 6 400 7003 2861 278% 13 5684 885 33%
c -  0.44  6 16 7 401 8408 2510 194% 12 5684 885 33%
c I  0.51  6 17 7 402 10007 3731 160% 13 5684 885 33%
c -  0.55  6 18 8 403 10808 2866 150% 13 5684 885 33%
c -  0.69  7 19 9 405 13509 3243 130% 14 5684 885 33%
c s  0.72  7 20 9 405 13950 3558 128% 15 5684 885 33%
c w  0.72  7 20 9 405 13950 3558 128% 15 5684 885 33%
c s  0.73  7 20 9 405 13950 3558 128% 15 5684 885 33%
c ^  0.73  7 20 9 405 13950 3558 128% 15 5684 885 33%
c ]  0.79  7 20 9 405 15004 4354 124% 15 5684 885 33%
c {  0.79  7 24 9 405 15004 4354 85% 10 5684 885 33%
c p  0.79  7 24 9 405 15004 4384 85% 10 5684 885 33%
c B  0.79  7 24 9 405 15008 4388 85% 10 5684 885 33%
c -  0.86  7 22 10 501 16510 3742 84% 10 5684 885 33%
c -  1.01  6 22 11 765 19811 4403 83% 10 5684 885 33%
c W  1.07  6 21 11 789 21009 5446 83% 10 5684 885 33%
c -  1.19  7 21 12 912 23411 5085 83% 10 5684 885 33%
c -  1.36  6 20 13 1080 27311 5684 83% 10 5684 885 33%
c F  1.39  6 20 13 1095 28010 6265 83% 10 5684 885 33%
c p  1.49  6 20 13 1224 30007 8164 83% 10 5684 885 33%
c 
c  seconds  reductions     redundant  irredundant
c         MB     restarts         trail     variables
c          level      conflicts       glue      remaining
c 
c s  1.50  6 20 13 1229 30049 8191 83% 10 5684 885 33%
c s  1.53  6 20 13 1229 30049 8186 83% 10 5684 885 33%
c ^  1.53  6 20 13 1229 30049 8186 83% 10 5684 885 33%
c }  1.57  6 20 13 1283 31006 9064 83% 10 5684 885 33%
c [  1.57  6 20 13 1283 31006 9064 124% 15 5684 885 33%
c -  1.60  7 20 14 1283 31512 6431 122% 15 5684 885 33%
c B  1.83  7 20 14 1286 36011 10074 111% 15 5684 885 33%
c -  1.83  7 20 15 1286 36015 6278 111% 15 5684 885 33%
c -  2.09  7 24 16 1289 40818 6309 105% 16 5684 885 33%
c W  2.34  7 23 16 1290 45013 9738 102% 16 5684 885 33%
c -  2.40  7 23 17 1291 45918 6425 101% 16 5684 885 33%
c p  2.64  7 23 17 1291 50008 9463 99% 16 5684 885 33%
c -  2.72  7 23 18 1291 51318 6902 98% 16 5684 885 33%
c s  2.73  7 23 18 1291 51515 7071 98% 16 5684 885 33%
c s  2.75  7 23 18 1291 51515 7069 98% 16 5684 885 33%
c ^  2.76  7 23 18 1291 51515 7069 98% 16 5684 885 33%
c O  2.95  7 23 18 1292 55014 10028 97% 16 5684 885 33%
c -  3.06  8 23 19 1294 57019 7134 97% 16 5684 885 33%
c ]  3.41  8 22 19 1298 63007 11576 95% 16 5684 885 33%
c {  3.41  8 20 19 1298 63007 11576 83% 10 5684 885 33%
c 
c  seconds  reductions     redundant  irredundant
c         MB     restarts         trail     variables
c          level      conflicts       glue      remaining
c 
c -  3.41  8 20 20 1302 63019 7394 83% 10 5684 885 33%
c B  3.55  8 20 20 1483 66015 10131 83% 10 5684 885 33%
c -  3.71  8 20 21 1659 69320 8479 82% 10 5684 885 33%
c p  3.98  8 19 21 1989 75008 13607 82% 10 5684 885 33%
c -  4.03  8 19 22 2028 75922 9691 82% 10 5684 885 33%
c W  4.15  8 19 22 2158 78017 11605 83% 10 5684 885 33%
c s  4.18  8 19 22 2165 78350 11856 82% 10 5684 885 33%
c w  4.20  8 19 22 2165 78350 11851 82% 10 5684 885 33%
c s  4.23  8 19 22 2165 78350 11847 82% 10 5684 885 33%
c ^  4.23  8 19 22 2165 78350 11847 82% 10 5684 885 33%
c -  4.46  8 19 23 2437 82822 10809 81% 10 5684 885 33%
c -  4.86  9 19 24 2903 90023 11907 82% 10 5684 885 33%
c #  4.91  9 19 24 2946 91018 12790 82% 10 5684 885 33%
c -  5.26  9 19 25 3353 97528 12436 82% 10 5684 885 33%
c p  5.67  9 19 25 3835 105008 19278 82% 10 5684 885 33%
c B  5.67  9 19 25 3835 105020 19290 82% 10 5684 885 33%
c -  5.70  9 19 26 3848 105330 13018 82% 10 5684 885 33%
c s  5.98  9 19 26 4155 110553 17686 82% 10 5684 885 33%
c w  6.00  9 19 26 4155 110553 17683 82% 10 5684 885 33%
c e  6.02  9 19 26 4155 110553 4094 82% 10 8120 567 21%
c 
c  seconds  reductions      redundant  irredundant
c         MB     restarts          trail     variables
c          level      conflicts        glue      remaining
c 
c s  6.03  9 19 26 4155 110553 4090 82% 10 8120 567 21%
c ^  6.03  9 19 26 4155 110553 4090 82% 10 8120 567 21%
c -  6.17  9 19 27 4399 113430 5332 84% 10 8120 567 21%
c W  6.53  9 19 27 4818 120022 11198 83% 10 8120 567 21%
c -  6.62 10 19 28 4918 121830 10293 83% 10 8120 567 21%
c }  6.87 10 19 28 5180 127010 15113 83% 10 8120 567 21%
c [  6.87 10 22 28 5180 127010 15113 148% 16 8120 567 21%
c -  7.05 11 24 29 5180 130530 12796 143% 17 8120 567 21%
c B  7.34  9 24 29 5185 136023 17417 135% 17 8120 567 21%
c -  7.55 10 26 30 5187 139532 12950 131% 17 8120 567 21%
c p  7.59 10 26 30 5187 140009 13380 131% 17 8120 566 21%
c -  8.08  9 25 31 5188 148833 11919 123% 17 8115 566 21%
c W  8.37  9 25 31 5189 153024 14923 120% 17 8115 566 21%
c -  8.72 11 27 32 5189 158435 12862 117% 18 8115 566 21%
c s  9.14 11 29 32 5189 164318 18181 114% 19 8110 566 21%
c w  9.17 11 29 32 5189 164318 18176 114% 19 8110 566 21%
c s  9.19 11 29 32 5189 164318 18173 114% 19 8110 566 21%
c -  9.53 11 29 33 5190 168336 13734 112% 19 8110 566 21%
c I  9.71 11 29 33 5192 171025 16055 111% 20 8110 566 21%
c - 10.21 11 29 34 5196 178538 14176 108% 19 8110 566 21%
c 
c  seconds  reductions       redundant   irredundant
c         MB     restarts           trail      variables
c          level      conflicts          glue      remaining
c 
c p 10.30 11 29 34 5196 180010 15483 107% 19 8110 566 21%
c - 10.88 10 29 35 5203 189039 14148 105% 20 8110 566 21%
c B 10.95 10 29 35 5203 190027 14988 104% 20 8110 566 21%
c - 11.58 12 30 36 5204 199841 14591 102% 20 8110 566 21%
c W 12.37 12 30 36 5211 210028 22537 100% 20 8110 566 21%
c - 12.46 10 30 37 5211 210941 14384 100% 20 8110 566 21%
c - 13.22 12 29 38 5218 222341 14625 98% 20 8110 566 21%
c p 13.40 12 29 38 5218 225010 16569 97% 20 8110 566 21%
c O 13.78 12 29 38 5219 231031 21654 97% 20 8110 566 21%
c - 13.97 12 28 39 5219 234042 14838 96% 20 8110 566 21%
c - 14.73 12 27 40 5220 246043 13385 95% 19 8110 566 21%
c B 15.16 12 26 40 5221 253033 17814 94% 19 8110 566 21%
c ] 15.28 12 26 40 5221 255011 19621 94% 19 8110 566 21%
c { 15.28 12 19 40 5221 255011 19621 83% 10 8110 566 21%
c - 15.50 13 19 41 5587 258345 15213 83% 10 8110 566 21%
c - 16.18 13 19 42 6346 270946 17222 80% 10 8110 566 21%
c p 16.42 13 19 42 6570 275010 21029 80% 10 8110 566 21%
c F 16.48 13 19 42 6627 276035 21991 81% 10 8110 566 21%
c - 16.95 13 19 43 7254 283846 19489 79% 10 8110 566 21%
c - 17.80 14 19 44 8239 297046 21396 80% 10 8110 566 21%
c 
c  seconds  reductions       redundant  irredundant
c         MB     restarts           trail     variables
c          level      conflicts         glue      remaining
c 
c B 17.99 14 19 44 8494 300038 24051 80% 10 8110 566 21%
c - 18.67 14 19 45 9213 310546 22079 80% 10 8110 566 21%
c - 19.62 14 19 46 10400 324348 23026 80% 10 8110 566 21%
c W 19.75 14 19 46 10414 325041 23668 80% 10 8110 566 21%
c p 20.11 14 19 46 10955 330013 28202 80% 10 8110 566 21%
c - 20.73 12 19 47 11451 338448 23956 80% 10 8110 566 21%
c # 21.64 12 19 47 12390 351043 35352 80% 10 8110 566 21%
c - 21.80 13 18 48 12415 352848 24916 80% 10 8110 566 21%
c - 22.92 13 18 49 13687 367549 26166 80% 10 8110 566 21%
c B 23.68 13 18 49 14353 378045 35248 80% 10 8110 566 21%
c - 24.09 13 18 50 14822 382550 26534 80% 10 8110 566 21%
c p 24.66 13 18 50 15421 390014 33346 81% 10 8110 562 21%
c s 24.72 13 18 50 15421 390014 33133 81% 10 8110 562 21%
c v 24.76 13 18 50 15421 390014 33133 81% 10 8072 562 21%
c w 24.80 13 18 50 15421 390014 33116 81% 10 8072 562 21%
c s 24.87 13 18 50 15421 390014 33108 81% 10 8052 562 21%
c - 25.55 14 18 51 16135 397850 28252 81% 10 8052 562 21%
c W 26.29 14 18 51 16814 406046 35598 81% 10 8052 562 21%
c - 26.94 14 18 52 17379 413450 28381 81% 10 8052 562 21%
c - 28.16 14 18 53 18593 429350 28982 81% 10 8052 562 21%
c 
c  seconds  reductions        redundant  irredundant
c         MB      restarts           trail     variables
c          level       conflicts         glue      remaining
c 
c F 28.52 14 18 53 18890 435047 34109 80% 10 8052 562 21%
c - 29.29 14 18 54 19407 445550 29429 80% 10 8052 562 21%
c p 29.93 14 18 54 19823 455015 37949 80% 10 8052 562 21%
c s 30.30 14 18 54 19964 459149 41337 80% 10 8052 562 21%
c w 30.36 14 18 54 19964 459149 41334 80% 10 8052 562 21%
c s 30.45 14 18 54 19964 459149 41329 80% 10 8052 562 21%
c - 30.71 14 18 55 20088 462050 30610 80% 10 8052 562 21%
c B 30.91 14 18 55 20242 465054 33247 80% 10 8052 562 21%
c - 32.03 14 18 56 21241 478850 31646 80% 10 8052 562 21%
c - 33.19 14 17 57 22076 495952 30963 79% 10 8052 562 21%
c W 33.33 14 17 57 22076 496056 31030 79% 10 8052 562 21%
c } 34.59 14 18 57 23662 511011 44715 79% 10 8052 562 21%
c [ 34.59 14 26 57 23662 511011 44715 94% 19 8052 562 21%
c - 34.76 16 26 58 23662 513353 32970 94% 19 8052 562 21%
c p 35.52 16 25 58 23662 525016 42431 93% 18 8052 559 21%
c W 35.92 18 26 58 23662 528057 45197 93% 18 8037 559 21%
c - 36.14 14 26 59 23662 531053 31686 92% 19 8037 559 21%
c s 36.54 14 26 59 23662 535964 35952 92% 19 8004 559 21%
c w 36.61 14 26 59 23662 535964 35946 92% 19 8004 559 21%
c s 36.68 14 26 59 23662 535964 35941 92% 19 8004 559 21%
c 
c  seconds  reductions        redundant  irredundant
c         MB      restarts           trail     variables
c          level       conflicts         glue      remaining
c 
c - 37.71 16 26 60 23669 549054 29083 91% 19 8004 559 21%
c I 38.62 16 26 60 23676 561059 38482 90% 19 8004 559 21%
c - 39.12 19 27 61 23677 567356 29902 90% 19 8004 559 21%
c - 40.53 19 26 62 23685 585956 28698 90% 19 8004 559 21%
c B 41.20 19 25 62 23691 595061 34707 90% 18 8004 559 21%
c p 41.61 19 27 62 23692 600018 39241 90% 19 8004 559 21%
c - 42.00 19 27 63 23692 604857 28985 90% 19 8004 559 21%
c - 43.60 20 29 64 23694 624062 31177 90% 20 8004 559 21%
c W 44.30 20 29 64 23699 630062 36461 89% 21 8004 559 21%
c - 45.73 20 30 65 23706 643562 32024 89% 21 8004 559 21%
c - 47.60 20 30 66 23714 663364 31938 89% 22 8004 559 21%
c O 47.85 20 30 66 23715 666064 33956 89% 22 8004 559 21%
c p 48.83 20 29 66 23722 680019 43921 89% 21 8004 559 21%
c - 49.10 20 28 67 23723 683464 29402 88% 21 8004 559 21%
c B 50.53 20 28 67 23724 703068 44390 88% 20 8004 559 21%
c - 50.62 20 28 68 23724 703866 30744 88% 20 8004 559 21%
c - 52.27 20 29 69 23725 724567 32357 88% 21 8004 559 21%
c W 53.94 20 30 69 23726 741069 46921 88% 21 8004 559 21%
c - 54.38 20 30 70 23726 745568 33696 88% 21 8004 559 21%
c p 56.10 20 29 70 23726 765020 48796 88% 21 8004 559 21%
c 
c  seconds  reductions        redundant  irredundant
c         MB      restarts           trail     variables
c          level       conflicts         glue      remaining
c 
c - 56.32 20 28 71 23726 766870 32263 88% 20 8004 559 21%
c I 57.36 20 28 71 23726 780072 42688 88% 20 8004 559 21%
c - 58.15 20 29 72 23726 788472 34561 87% 20 8004 559 21%
c - 60.38 25 30 73 23730 810374 37373 87% 20 8004 559 21%
c B 61.53 25 30 73 23735 820074 46332 87% 19 8004 559 21%
c - 62.57 21 30 74 23741 832578 38105 87% 19 8004 559 21%
c p 64.71 21 29 74 23751 855020 56612 87% 20 8004 558 21%
c s 64.83 21 29 74 23751 855020 56498 87% 20 8004 558 21%
c v 64.87 21 29 74 23751 855020 56498 87% 20 7993 558 21%
c w 65.00 21 29 74 23751 855020 56470 87% 20 7993 558 21%
c s 65.12 21 29 74 23751 855020 56459 87% 20 7988 558 21%
c - 65.19 21 29 75 23751 855078 37987 87% 20 7988 558 21%
c W 65.97 21 29 75 23755 861075 42469 87% 20 7988 558 21%
c - 67.64 21 28 76 23757 877880 36303 87% 20 7988 558 21%
c - 70.05 21 27 77 23764 900980 36193 87% 19 7988 558 21%
c O 70.26 21 27 77 23766 903076 37776 87% 19 7988 558 21%
c - 72.04 21 25 78 23775 924381 33501 87% 19 7988 558 21%
c B 73.88 21 24 78 23786 946078 47711 88% 18 7988 558 21%
c ] 73.89 21 24 78 23786 946103 47736 88% 18 7988 558 21%
c 1 73.89 21 24 78 23786 946103 47736 88% 18 7988 558 21%
c 
c --- [ result ] -------------------------------------------------------------
c 
s SATISFIABLE
v -1 -2 -3 -4 -5 -6 -7 8 -9 10 -11 -12 -13 -14 -15 -16 -17 -18 -19 -20 -21 -22
v -23 24 -25 26 -27 28 -29 -30 31 -32 -33 -34 -35 -36 37 38 -39 -40 -41 -42
v -43 -44 -45 -46 47 -48 -49 -50 -51 -52 -53 54 55 56 -57 -58 59 -60 -61 62 63
v -64 -65 -66 -67 -68 -69 -70 -71 -72 -73 -74 -75 76 -77 -78 -79 -80 -81 82
v -83 -84 85 86 -87 -88 -89 -90 -91 -92 -93 -94 -95 -96 -97 -98 -99 -100 -101
v -102 -103 -104 -105 -106 -107 -108 109 -110 -111 -112 113 -114 -115 -116
v -117 -118 119 120 121 -122 -123 -124 -125 -126 -127 -128 129 -130 -131 -132
v -133 -134 -135 -136 -137 -138 -139 140 -141 -142 -143 144 -145 -146 -147 148
v -149 -150 -151 -152 -153 -154 -155 156 -157 -158 -159 -160 -161 -162 -163
v -164 -165 -166 -167 -168 -169 -170 -171 -172 173 174 -175 -176 -177 -178
v -179 180 -181 182 -183 -184 -185 -186 -187 -188 -189 -190 -191 -192 -193
v -194 195 -196 -197 -198 -199 -200 -201 -202 -203 -204 -205 -206 -207 -208
v -209 -210 211 -212 -213 214 -215 216 -217 -218 -219 -220 -221 -222 223 -224
v -225 -226 -227 -228 -229 -230 231 232 -233 -234 -235 -236 -237 -238 -239 240
v 241 -242 -243 -244 -245 246 -247 -248 -249 -250 251 252 -253 -254 255 -256
v -257 -258 259 -260 -261 262 -263 264 -265 266 267 268 269 270 271 -272 -273
v -274 275 276 277 -278 -279 280 -281 282 283 -284 285 -286 287 -288 -289 -290
v -291 -292 -293 294 -295 296 297 -298 299 -300 -301 302 -303 -304 -305 -306
v -307 308 309 310 -311 -312 -313 -314 315 -316 -317 -318 -319 320 -321 -322
v -323 324 325 326 327 328 329 330 331 332 333 334 335 336 337 338 339 340 341
v 342 343 344 345 346 347 348 349 350 351 352 353 354 355 356 357 358 359 360
v 361 362 363 364 365 366 367 368 369 370 371 372 373 374 375 376 377 378 379
v 380 381 382 383 384 385 386 387 388 389 390 391 392 393 394 395 396 397 398
v -399 400 401 402 403 404 405 406 407 408 409 410 411 412 413 414 415 416 417
v 418 419 420 421 422 423 424 425 426 427 428 429 430 431 432 433 434 435 436
v 437 438 439 440 441 442 443 444 445 446 447 448 449 450 451 452 453 454 455
v 456 457 458 459 460 461 462 463 464 465 466 467 468 469 470 471 472 -473
v -474 -475 -476 477 478 479 480 481 482 483 484 485 486 487 488 489 490 491
v 492 493 494 495 496 497 498 499 500 501 502 503 504 505 506 507 508 509 510
v 511 512 513 514 515 516 517 518 519 520 521 522 523 524 525 526 527 528 529
v 530 531 532 533 534 535 536 537 538 539 540 541 542 543 544 545 546 -547
v -548 -549 -550 -551 -552 -553 -554 555 556 557 558 559 560 561 562 563 564
v 565 566 567 568 569 570 571 572 573 574 575 576 577 578 579 580 581 582 583
v 584 585 586 587 588 589 590 591 592 593 594 595 596 597 598 599 600 601 602
v 603 604 605 606 607 608 609 610 611 612 613 614 615 616 617 618 619 620 -621
v -622 -623 -624 -625 -626 -627 -628 -629 -630 -631 632 633 634 635 636 637
v 638 639 640 641 642 643 644 645 646 647 648 649 650 651 652 653 654 655 656
v 657 658 659 660 661 662 663 664 665 666 667 668 669 670 671 672 673 674 675
v 676 677 678 679 680 681 682 683 684 685 686 687 688 689 690 691 692 693 694
v -695 -696 -697 -698 -699 -700 -701 -702 -703 -704 -705 -706 -707 708 709 710
v 711 712 713 714 715 716 717 718 719 720 721 722 723 724 725 726 727 728 729
v 730 731 732 733 734 735 736 737 738 739 740 741 742 743 744 745 746 747 748
v 749 750 751 752 753 754 755 756 757 758 759 760 761 762 763 764 765 766 767
v 768 -769 -770 -771 -772 -773 -774 -775 -776 -777 -778 -779 -780 -781 -782
v -783 784 785 786 787 788 789 790 791 792 793 794 795 796 797 798 799 800 801
v 802 803 804 805 806 807 808 809 810 811 812 813 814 815 816 817 818 819 820
v 821 822 823 824 825 826 827 828 829 830 831 832 833 834 835 836 837 838 839
v 840 841 842 -843 -844 -845 -846 -847 -848 -849 -850 -851 -852 -853 -854 -855
v -856 -857 -858 859 860 861 862 863 864 865 866 867 868 869 870 871 872 873
v 874 875 876 877 878 879 880 881 882 883 884 885 886 887 888 889 890 891 892
v 893 894 895 896 897 898 899 900 901 902 903 904 905 906 907 908 909 910 911
v 912 913 914 915 916 -917 -918 -919 -920 -921 -922 -923 -924 -925 -926 -927
v -928 -929 -930 -931 -932 -933 934 935 936 937 938 939 940 941 942 943 944
v 945 946 947 948 949 950 951 952 953 954 955 956 957 958 959 960 961 962 963
v 964 965 966 967 968 969 970 971 972 973 974 975 976 977 978 979 980 981 982
v 983 984 985 986 987 988 989 990 -991 -992 -993 -994 -995 -996 -997 -998 -999
v -1000 -1001 -1002 -1003 -1004 -1005 -1006 -1007 -1008 1009 1010 1011 1012
v 1013 1014 1015 1016 1017 1018 1019 1020 1021 1022 1023 1024 1025 1026 1027
v 1028 1029 1030 1031 1032 1033 1034 1035 1036 1037 1038 1039 1040 1041 1042
v 1043 1044 1045 1046 1047 1048 1049 1050 1051 1052 1053 1054 1055 1056 1057
v 1058 1059 1060 1061 1062 1063 1064 -1065 -1066 -1067 -1068 -1069 -1070 -1071
v -1072 -1073 -1074 -1075 -1076 -1077 -1078 -1079 -1080 -1081 -1082 -1083 1084
v 1085 1086 1087 1088 1089 1090 1091 1092 1093 1094 1095 1096 1097 1098 1099
v 1100 1101 1102 1103 1104 1105 1106 1107 1108 1109 1110 1111 1112 1113 1114
v 1115 1116 1117 1118 1119 1120 1121 1122 1123 1124 1125 1126 1127 1128 1129
v 1130 1131 1132 1133 1134 1135 1136 1137 1138 -1139 -1140 -1141 -1142 -1143
v -1144 -1145 -1146 -1147 -1148 -1149 -1150 -1151 -1152 -1153 -1154 -1155
v -1156 -1157 -1158 1159 1160 1161 1162 1163 1164 1165 1166 1167 1168 1169
v 1170 1171 1172 1173 1174 1175 1176 1177 1178 1179 1180 1181 1182 1183 1184
v 1185 1186 1187 1188 1189 1190 1191 1192 1193 1194 1195 1196 1197 1198 1199
v 1200 1201 1202 1203 1204 1205 1206 1207 1208 1209 1210 1211 1212 -1213 -1214
v -1215 -1216 -1217 -1218 -1219 -1220 -1221 -1222 -1223 -1224 -1225 -1226
v -1227 -1228 -1229 -1230 -1231 -1232 -1233 -1234 -1235 -1236 1237 1238 1239
v 1240 1241 1242 1243 1244 1245 1246 1247 1248 1249 1250 1251 1252 1253 1254
v 1255 1256 1257 1258 1259 1260 1261 1262 1263 1264 1265 1266 1267 1268 1269
v 1270 1271 1272 1273 1274 1275 1276 1277 1278 1279 1280 1281 1282 1283 1284
v 1285 1286 -1287 -1288 -1289 -1290 -1291 -1292 -1293 -1294 -1295 -1296 -1297
v -1298 -1299 -1300 -1301 -1302 -1303 -1304 -1305 -1306 -1307 -1308 -1309
v -1310 -1311 1312 1313 1314 1315 1316 1317 1318 1319 1320 1321 1322 1323 1324
v 1325 1326 1327 1328 1329 1330 1331 1332 1333 1334 1335 1336 1337 1338 1339
v 1340 1341 1342 1343 1344 1345 1346 1347 1348 1349 1350 1351 1352 1353 1354
v 1355 1356 1357 1358 1359 1360 -1361 -1362 -1363 -1364 -1365 -1366 -1367
v -1368 -1369 -1370 -1371 -1372 -1373 -1374 -1375 -1376 -1377 -1378 -1379
v -1380 -1381 -1382 -1383 -1384 -1385 -1386 1387 1388 1389 1390 1391 1392 1393
v 1394 1395 1396 1397 1398 1399 1400 1401 1402 1403 1404 1405 1406 1407 1408
v 1409 1410 1411 1412 1413 1414 1415 1416 1417 1418 1419 1420 1421 1422 1423
v 1424 1425 1426 1427 1428 1429 1430 1431 1432 1433 1434 -1435 -1436 -1437
v -1438 -1439 -1440 -1441 -1442 -1443 -1444 -1445 -1446 -1447 -1448 -1449
v -1450 -1451 -1452 -1453 -1454 -1455 -1456 -1457 -1458 -1459 -1460 -1461
v -1462 -1463 1464 1465 1466 1467 1468 1469 1470 1471 1472 1473 1474 1475 1476
v 1477 1478 1479 1480 1481 1482 1483 1484 1485 1486 1487 1488 1489 1490 1491
v 1492 1493 1494 1495 1496 1497 1498 1499 1500 1501 1502 1503 1504 1505 1506
v 1507 1508 -1509 -1510 -1511 -1512 -1513 -1514 -1515 -1516 -1517 -1518 -1519
v -1520 -1521 -1522 -1523 -1524 -1525 -1526 -1527 -1528 -1529 -1530 -1531
v -1532 -1533 -1534 -1535 -1536 -1537 -1538 -1539 1540 1541 1542 1543 1544
v 1545 1546 1547 1548 1549 1550 1551 1552 1553 1554 1555 1556 1557 1558 1559
v 1560 1561 1562 1563 1564 1565 1566 1567 1568 1569 1570 1571 1572 1573 1574
v 1575 1576 1577 1578 1579 1580 1581 1582 -1583 -1584 -1585 -1586 -1587 -1588
v -1589 -1590 -1591 -1592 -1593 -1594 -1595 -1596 -1597 -1598 -1599 -1600
v -1601 -1602 -1603 -1604 -1605 -1606 -1607 -1608 -1609 -1610 -1611 -1612
v -1613 -1614 1615 1616 1617 1618 1619 1620 1621 1622 1623 1624 1625 1626 1627
v 1628 1629 1630 1631 1632 1633 1634 1635 1636 1637 1638 1639 1640 1641 1642
v 1643 1644 1645 1646 1647 1648 1649 1650 1651 1652 1653 1654 1655 1656 -1657
v -1658 -1659 -1660 -1661 -1662 -1663 -1664 -1665 -1666 -1667 -1668 -1669
v -1670 -1671 -1672 -1673 -1674 -1675 -1676 -1677 -1678 -1679 -1680 -1681
v -1682 -1683 -1684 -1685 -1686 -1687 -1688 -1689 -1690 1691 1692 1693 1694
v 1695 1696 1697 1698 1699 1700 1701 1702 1703 1704 1705 1706 1707 1708 1709
v 1710 1711 1712 1713 1714 1715 1716 1717 1718 1719 1720 1721 1722 1723 1724
v 1725 1726 1727 1728 1729 1730 -1731 -1732 -1733 -1734 -1735 -1736 -1737
v -1738 -1739 -1740 -1741 -1742 -1743 -1744 -1745 -1746 -1747 -1748 -1749
v -1750 -1751 -1752 -1753 -1754 -1755 -1756 -1757 -1758 -1759 -1760 -1761
v -1762 -1763 -1764 -1765 -1766 1767 1768 1769 1770 1771 1772 1773 1774 1775
v 1776 1777 1778 1779 1780 1781 1782 1783 1784 1785 1786 1787 1788 1789 1790
v 1791 1792 1793 1794 1795 1796 1797 1798 1799 1800 1801 1802 1803 1804 -1805
v -1806 -1807 -1808 -1809 -1810 -1811 -1812 -1813 -1814 -1815 -1816 -1817
v -1818 -1819 -1820 -1821 -1822 -1823 -1824 -1825 -1826 -1827 -1828 -1829
v -1830 -1831 -1832 -1833 -1834 -1835 -1836 -1837 -1838 -1839 -1840 -1841
v -1842 -1843 -1844 -1845 -1846 -1847 1848 1849 1850 1851 1852 1853 1854 1855
v 1856 1857 1858 1859 1860 1861 1862 1863 1864 1865 1866 1867 1868 1869 1870
v 1871 1872 1873 1874 1875 1876 1877 1878 -1879 -1880 -1881 -1882 -1883 -1884
v -1885 -1886 -1887 -1888 -1889 -1890 -1891 -1892 -1893 -1894 -1895 -1896
v -1897 -1898 -1899 -1900 -1901 -1902 -1903 -1904 -1905 -1906 -1907 -1908
v -1909 -1910 -1911 -1912 -1913 -1914 -1915 -1916 -1917 -1918 -1919 -1920
v -1921 -1922 -1923 1924 1925 1926 1927 1928 1929 1930 1931 1932 1933 1934
v 1935 1936 1937 1938 1939 1940 1941 1942 1943 1944 1945 1946 1947 1948 1949
v 1950 1951 1952 -1953 -1954 -1955 -1956 -1957 -1958 -1959 -1960 -1961 -1962
v -1963 -1964 -1965 -1966 -1967 -1968 -1969 -1970 -1971 -1972 -1973 -1974
v -1975 -1976 -1977 -1978 -1979 -1980 -1981 -1982 -1983 -1984 -1985 -1986
v -1987 -1988 -1989 -1990 -1991 -1992 -1993 -1994 -1995 -1996 -1997 -1998 1999
v 2000 2001 2002 2003 2004 2005 2006 2007 2008 2009 2010 2011 2012 2013 2014
v 2015 2016 2017 2018 2019 2020 2021 2022 2023 2024 2025 2026 -2027 -2028
v -2029 -2030 -2031 -2032 -2033 -2034 -2035 -2036 -2037 -2038 -2039 -2040
v -2041 -2042 -2043 -2044 -2045 -2046 -2047 -2048 -2049 -2050 -2051 -2052
v -2053 -2054 -2055 -2056 -2057 -2058 -2059 -2060 -2061 -2062 -2063 -2064
v -2065 -2066 -2067 -2068 -2069 -2070 -2071 -2072 -2073 -2074 2075 2076 2077
v 2078 2079 2080 2081 2082 2083 2084 2085 2086 2087 2088 2089 2090 2091 2092
v 2093 2094 2095 2096 2097 2098 2099 2100 -2101 -2102 -2103 -2104 -2105 -2106
v -2107 -2108 -2109 -2110 -2111 -2112 -2113 -2114 -2115 -2116 -2117 -2118
v -2119 -2120 -2121 -2122 -2123 -2124 -2125 -2126 -2127 -2128 -2129 -2130
v -2131 -2132 -2133 -2134 -2135 -2136 -2137 -2138 -2139 -2140 -2141 -2142
v -2143 -2144 -2145 -2146 -2147 -2148 -2149 -2150 -2151 2152 2153 2154 2155
v 2156 2157 2158 2159 2160 2161 2162 2163 2164 2165 2166 2167 2168 2169 2170
v 2171 2172 2173 2174 -2175 -2176 -2177 -2178 -2179 -2180 -2181 -2182 -2183
v -2184 -2185 -2186 -2187 -2188 -2189 -2190 -2191 -2192 -2193 -2194 -2195
v -2196 -2197 -2198 -2199 -2200 -2201 -2202 -2203 -2204 -2205 -2206 -2207
v -2208 -2209 -2210 -2211 -2212 -2213 -2214 -2215 -2216 -2217 -2218 -2219
v -2220 -2221 -2222 -2223 -2224 -2225 -2226 -2227 -2228 -2229 -2230 -2231 2232
v 2233 2234 2235 2236 2237 2238 2239 2240 2241 2242 2243 2244 2245 2246 2247
v 2248 -2249 -2250 -2251 -2252 -2253 -2254 -2255 -2256 -2257 -2258 -2259 -2260
v -2261 -2262 -2263 -2264 -2265 -2266 -2267 -2268 -2269 -2270 -2271 -2272
v -2273 -2274 -2275 -2276 -2277 -2278 -2279 -2280 -2281 -2282 -2283 -2284
v -2285 -2286 -2287 -2288 -2289 -2290 -2291 -2292 -2293 -2294 -2295 -2296
v -2297 -2298 -2299 -2300 -2301 -2302 -2303 -2304 -2305 -2306 2307 2308 2309
v 2310 2311 2312 2313 2314 2315 2316 2317 2318 2319 2320 2321 2322 -2323 -2324
v -2325 -2326 -2327 -2328 -2329 -2330 -2331 -2332 -2333 -2334 -2335 -2336
v -2337 -2338 -2339 -2340 -2341 -2342 -2343 -2344 -2345 -2346 -2347 -2348
v -2349 -2350 -2351 -2352 -2353 -2354 -2355 -2356 -2357 -2358 -2359 -2360
v -2361 -2362 -2363 -2364 -2365 -2366 -2367 -2368 -2369 -2370 -2371 -2372
v -2373 -2374 -2375 -2376 -2377 -2378 -2379 -2380 -2381 2382 2383 2384 2385
v 2386 2387 2388 2389 2390 2391 2392 2393 2394 2395 2396 -2397 -2398 -2399
v -2400 -2401 -2402 -2403 -2404 -2405 -2406 -2407 -2408 -2409 -2410 -2411
v -2412 -2413 -2414 -2415 -2416 -2417 -2418 -2419 -2420 -2421 -2422 -2423
v -2424 -2425 -2426 -2427 -2428 -2429 -2430 -2431 -2432 -2433 -2434 -2435
v -2436 -2437 -2438 -2439 -2440 -2441 -2442 -2443 -2444 -2445 -2446 -2447
v -2448 -2449 -2450 -2451 -2452 -2453 -2454 -2455 -2456 -2457 -2458 -2459
v -2460 2461 2462 2463 2464 2465 2466 2467 2468 2469 2470 -2471 -2472 -2473
v -2474 -2475 -2476 -2477 -2478 -2479 -2480 -2481 -2482 -2483 -2484 -2485
v -2486 -2487 -2488 -2489 -2490 -2491 -2492 -2493 -2494 -2495 -2496 -2497
v -2498 -2499 -2500 -2501 -2502 -2503 -2504 -2505 -2506 -2507 -2508 -2509
v -2510 -2511 -2512 -2513 -2514 -2515 -2516 -2517 -2518 -2519 -2520 -2521
v -2522 -2523 -2524 -2525 -2526 -2527 -2528 -2529 -2530 -2531 -2532 -2533
v -2534 -2535 -2536 -2537 -2538 -2539 2540 2541 2542 2543 2544 -2545 -2546
v -2547 -2548 -2549 -2550 -2551 -2552 -2553 -2554 -2555 -2556 -2557 -2558
v -2559 -2560 -2561 -2562 -2563 -2564 -2565 -2566 -2567 -2568 -2569 -2570
v -2571 -2572 -2573 -2574 -2575 -2576 -2577 -2578 -2579 -2580 -2581 -2582
v -2583 -2584 -2585 -2586 -2587 -2588 -2589 -2590 -2591 -2592 -2593 -2594
v -2595 -2596 -2597 -2598 -2599 -2600 -2601 -2602 -2603 -2604 -2605 -2606
v -2607 -2608 -2609 -2610 -2611 -2612 -2613 -2614 -2615 -2616 -2617 2618 -2619
v -2620 -2621 -2622 -2623 -2624 -2625 -2626 -2627 -2628 -2629 -2630 -2631
v -2632 -2633 -2634 -2635 -2636 -2637 -2638 -2639 -2640 -2641 -2642 -2643
v -2644 -2645 -2646 -2647 -2648 -2649 -2650 -2651 -2652 -2653 -2654 -2655
v -2656 -2657 -2658 -2659 -2660 -2661 -2662 -2663 -2664 -2665 -2666 -2667
v -2668 -2669 -2670 -2671 -2672 -2673 -2674 -2675 -2676 -2677 -2678 -2679
v -2680 -2681 -2682 -2683 -2684 -2685 -2686 -2687 -2688 -2689 -2690 -2691
v -2692 0
c 
c --- [ run-time profiling ] -------------------------------------------------
c 
c process time taken by individual solving procedures
c (percentage relative to process time for solving)
c 
c        72.17   97.68% search
c        48.17   65.19% stable
c        22.65   30.66% unstable
c         1.72    2.32% simplify
c         1.34    1.82% walk
c         0.75    1.02% subsume
c         0.44    0.60% vivify
c         0.22    0.29% probe
c         0.09    0.12% elim
c         0.08    0.10% ternary
c         0.00    0.01% parse
c         0.00    0.00% lucky
c   =================================
c        73.88   99.99% solve
c 
c last line shows process time for solving
c (percentage relative to total process time)
c 
c --- [ statistics ] ---------------------------------------------------------
c 
c chronological:            177153        18.72 %  of conflicts
c conflicts:                946103     12805.08    per second
c decisions:               1502755     20339.12    per second
c eliminated:                 2051        76.19 %  of all variables
c fixed:                        83         3.08 %  of all variables
c learned:                  930074        98.31 %  per conflict
c learned_lits:           37987318       100.00 %  learned literals
c minimized:                     0         0.00 %  learned literals
c shrunken:               11794587        31.05 %  learned literals
c minishrunken:            3712815         9.77 %  learned literals
c propagations:           74354412         1.01 M  per second
c reduced:                  727737        76.92 %  per conflict
c rephased:                     43     22002.40    interval
c restarts:                  23786        39.78    interval
c stabilizing:                   5        63.96 %  of conflicts
c subsumed:                 139457         7.36 %  of all clauses
c strengthened:               9294         0.49 %  of all clauses
c ternary:                      15         0.03 %  of resolved
c vivified:                    170         0.01 %  of all clauses
c walked:                       13     72777.15    interval
c weakened:                   8783         2.89    average size
c 
c seconds are measured in process time for solving
c 
c --- [ resources ] ----------------------------------------------------------
c 
c total process time since initialization:        73.89    seconds
c total real time since initialization:           73.90    seconds
c maximum resident set size of process:           24.67    MB
c 
c --- [ shutting down ] ------------------------------------------------------
c 
c exit 10
